p tw 25 63
0 1
0 6
0 5
0 14
1 4
1 12
1 5
1 2
1 18
2 3
2 7
2 16
2 9
2 19
2 5
2 20
3 15
3 12
3 20
3 18
3 8
4 8
4 22
4 20
4 12
5 6
5 8
5 14
5 13
5 21
5 16
6 8
6 15
6 24
7 12
7 14
7 10
8 9
8 19
8 18
9 10
9 20
10 12
10 15
11 12
11 19
11 16
12 24
12 23
12 16
13 14
13 20
13 23
13 24
14 16
16 18
17 18
17 21
17 24
18 21
19 21
20 23
20 22
